10
0	76	48	35	97	15	39	60	82	39	
76	0	49	51	27	49	60	85	65	93	
48	49	0	75	3	93	54	20	63	7	
35	51	75	0	19	52	33	6	52	70	
97	27	3	19	0	73	27	7	43	21	
15	49	93	52	73	0	79	56	3	13	
39	60	54	33	27	79	0	30	92	71	
60	85	20	6	7	56	30	0	93	58	
82	65	63	52	43	3	92	93	0	70	
39	93	7	70	21	13	71	58	70	0	
